Route 1: 0 59 79 98 69 35 72 99 0
Route 2: 0 30 3 2 12 62 56 0
Route 3: 0 45 94 53 40 43 65 60 18 47 55 67 86 0
Route 4: 0 26 37 34 20 8 93 83 33 51 0
Route 5: 0 52 25 21 16 27 31 81 78 10 95 0
Route 6: 0 14 76 57 71 13 23 36 77 38 0
Route 7: 0 64 24 82 42 17 87 6 49 58 41 88 80 0
Route 8: 0 100 1 50 74 11 84 0
Route 9: 0 46 5 54 75 91 70 96 29 39 22 48 97 0
Route 10: 0 28 89 73 68 66 61 19 92 44 4 9 7 0
Route 11: 0 15 63 90 32 85 0
